826,511
611,503
561,776
1020,67
681,616
705,423
469,194
1081,610
681,346
751,850
468,298
977,110
618,469
435,67
795,369
681,346
814,474
417,770
996,635
769,527
681,16
1081,202
1028,583
227,637
552,7
477,806
914,173
927,67
792,64
649,613
356,355
1125,476
644,292
477,6
801,406
912,-48
885,806
